p wcnf 42 2313 2314
1 -1 -6 -7 -10 0
1 -1 -6 -7 -13 0
1 -1 -6 -7 -18 0
1 -1 -6 -7 -21 0
1 -1 -6 -10 -25 0
1 -1 -6 -10 -36 0
1 -1 -6 -10 -41 0
1 -1 -6 -13 -29 0
1 -1 -6 -13 -36 0
1 -1 -6 -18 -29 0
1 -1 -6 -18 -36 0
1 -1 -6 -21 -25 0
1 -1 -6 -21 -36 0
1 -1 -6 -21 -41 0
1 -1 -6 -25 -29 0
1 -1 -6 -29 -41 0
1 -1 -7 -10 -20 0
1 -1 -7 -10 -23 0
1 -1 -7 -13 -20 0
1 -1 -7 -13 -23 0
1 -1 -7 -18 -20 0
1 -1 -7 -18 -23 0
1 -1 -7 -20 -21 0
1 -1 -7 -21 -23 0
1 -1 -10 -20 -26 0
1 -1 -10 -20 -36 0
1 -1 -10 -23 -24 0
1 -1 -10 -23 -26 0
1 -1 -10 -23 -31 0
1 -1 -10 -24 -25 0
1 -1 -10 -24 -36 0
1 -1 -10 -24 -41 0
1 -1 -10 -25 -26 0
1 -1 -10 -26 -41 0
1 -1 -10 -31 -36 0
1 -1 -10 -31 -41 0
1 -1 -11 -12 -13 0
1 -1 -11 -12 -21 0
1 -1 -11 -12 -31 0
1 -1 -11 -13 -19 0
1 -1 -11 -13 -23 0
1 -1 -11 -13 -36 0
1 -1 -11 -19 -31 0
1 -1 -11 -21 -23 0
1 -1 -11 -21 -36 0
1 -1 -11 -23 -24 0
1 -1 -11 -23 -31 0
1 -1 -11 -24 -36 0
1 -1 -11 -31 -36 0
1 -1 -12 -13 -20 0
1 -1 -12 -13 -29 0
1 -1 -12 -18 -20 0
1 -1 -12 -18 -29 0
1 -1 -12 -18 -31 0
1 -1 -12 -20 -21 0
1 -1 -12 -21 -25 0
1 -1 -12 -21 -41 0
1 -1 -12 -25 -29 0
1 -1 -12 -29 -41 0
1 -1 -12 -31 -41 0
1 -1 -13 -19 -26 0
1 -1 -13 -19 -33 0
1 -1 -13 -20 -26 0
1 -1 -13 -20 -36 0
1 -1 -13 -23 -26 0
1 -1 -13 -23 -33 0
1 -1 -13 -26 -29 0
1 -1 -13 -29 -33 0
1 -1 -13 -33 -36 0
1 -1 -18 -19 -26 0
1 -1 -18 -19 -31 0
1 -1 -18 -20 -26 0
1 -1 -18 -20 -36 0
1 -1 -18 -23 -24 0
1 -1 -18 -23 -26 0
1 -1 -18 -23 -31 0
1 -1 -18 -24 -36 0
1 -1 -18 -26 -29 0
1 -1 -18 -31 -36 0
1 -1 -19 -25 -26 0
1 -1 -19 -31 -33 0
1 -1 -20 -21 -26 0
1 -1 -20 -21 -36 0
1 -1 -21 -23 -26 0
1 -1 -21 -23 -33 0
1 -1 -21 -25 -26 0
1 -1 -21 -26 -41 0
1 -1 -21 -33 -36 0
1 -1 -21 -33 -41 0
1 -1 -23 -24 -33 0
1 -1 -23 -31 -33 0
1 -1 -24 -33 -36 0
1 -1 -24 -33 -41 0
1 -1 -25 -26 -29 0
1 -1 -26 -29 -41 0
1 -1 -29 -33 -41 0
1 -1 -31 -33 -36 0
1 -1 -31 -33 -41 0
1 -2 -5 -8 -9 0
1 -2 -5 -8 -15 0
1 -2 -5 -8 -19 0
1 -2 -5 -8 -22 0
1 -2 -5 -9 -24 0
1 -2 -5 -9 -35 0
1 -2 -5 -9 -42 0
1 -2 -5 -15 -28 0
1 -2 -5 -15 -35 0
1 -2 -5 -19 -28 0
1 -2 -5 -19 -35 0
1 -2 -5 -22 -24 0
1 -2 -5 -22 -35 0
1 -2 -5 -22 -42 0
1 -2 -5 -24 -28 0
1 -2 -5 -28 -42 0
1 -2 -8 -9 -17 0
1 -2 -8 -9 -39 0
1 -2 -8 -15 -17 0
1 -2 -8 -15 -39 0
1 -2 -8 -17 -19 0
1 -2 -8 -17 -22 0
1 -2 -8 -19 -39 0
1 -2 -8 -22 -39 0
1 -2 -9 -17 -27 0
1 -2 -9 -17 -35 0
1 -2 -9 -24 -25 0
1 -2 -9 -24 -27 0
1 -2 -9 -25 -35 0
1 -2 -9 -25 -39 0
1 -2 -9 -25 -42 0
1 -2 -9 -27 -39 0
1 -2 -9 -27 -42 0
1 -2 -9 -30 -35 0
1 -2 -9 -30 -39 0
1 -2 -9 -30 -42 0
1 -2 -11 -12 -15 0
1 -2 -11 -12 -22 0
1 -2 -11 -12 -30 0
1 -2 -11 -15 -17 0
1 -2 -11 -15 -28 0
1 -2 -11 -17 -19 0
1 -2 -11 -17 -22 0
1 -2 -11 -19 -28 0
1 -2 -11 -19 -30 0
1 -2 -11 -22 -24 0
1 -2 -11 -22 -42 0
1 -2 -11 -24 -28 0
1 -2 -11 -28 -42 0
1 -2 -11 -30 -42 0
1 -2 -12 -15 -18 0
1 -2 -12 -15 -35 0
1 -2 -12 -15 -39 0
1 -2 -12 -18 -30 0
1 -2 -12 -22 -35 0
1 -2 -12 -22 -39 0
1 -2 -12 -25 -35 0
1 -2 -12 -25 -39 0
1 -2 -12 -30 -35 0
1 -2 -12 -30 -39 0
1 -2 -15 -17 -27 0
1 -2 -15 -17 -35 0
1 -2 -15 -18 -27 0
1 -2 -15 -18 -34 0
1 -2 -15 -27 -28 0
1 -2 -15 -27 -39 0
1 -2 -15 -28 -34 0
1 -2 -15 -34 -35 0
1 -2 -15 -34 -39 0
1 -2 -17 -19 -27 0
1 -2 -17 -19 -35 0
1 -2 -17 -22 -27 0
1 -2 -17 -22 -35 0
1 -2 -18 -19 -27 0
1 -2 -18 -19 -30 0
1 -2 -18 -24 -27 0
1 -2 -18 -30 -34 0
1 -2 -19 -25 -35 0
1 -2 -19 -25 -39 0
1 -2 -19 -27 -28 0
1 -2 -19 -27 -39 0
1 -2 -19 -30 -35 0
1 -2 -19 -30 -39 0
1 -2 -22 -24 -27 0
1 -2 -22 -27 -39 0
1 -2 -22 -27 -42 0
1 -2 -22 -34 -35 0
1 -2 -22 -34 -39 0
1 -2 -22 -34 -42 0
1 -2 -24 -27 -28 0
1 -2 -25 -34 -35 0
1 -2 -25 -34 -39 0
1 -2 -25 -34 -42 0
1 -2 -27 -28 -42 0
1 -2 -28 -34 -42 0
1 -2 -30 -34 -35 0
1 -2 -30 -34 -39 0
1 -2 -30 -34 -42 0
1 -3 -6 -7 -10 0
1 -3 -6 -7 -21 0
1 -3 -6 -7 -34 0
1 -3 -6 -7 -38 0
1 -3 -6 -10 -25 0
1 -3 -6 -10 -36 0
1 -3 -6 -10 -41 0
1 -3 -6 -21 -25 0
1 -3 -6 -21 -36 0
1 -3 -6 -21 -41 0
1 -3 -6 -25 -34 0
1 -3 -6 -25 -38 0
1 -3 -6 -34 -36 0
1 -3 -6 -34 -41 0
1 -3 -6 -36 -38 0
1 -3 -6 -38 -41 0
1 -3 -7 -10 -20 0
1 -3 -7 -10 -23 0
1 -3 -7 -20 -21 0
1 -3 -7 -20 -30 0
1 -3 -7 -21 -23 0
1 -3 -7 -23 -30 0
1 -3 -7 -30 -34 0
1 -3 -7 -30 -38 0
1 -3 -8 -10 -39 0
1 -3 -8 -10 -41 0
1 -3 -8 -14 -22 0
1 -3 -8 -14 -38 0
1 -3 -8 -22 -39 0
1 -3 -8 -22 -41 0
1 -3 -8 -33 -41 0
1 -3 -8 -38 -39 0
1 -3 -8 -38 -41 0
1 -3 -10 -20 -32 0
1 -3 -10 -20 -36 0
1 -3 -10 -20 -39 0
1 -3 -10 -23 -24 0
1 -3 -10 -24 -25 0
1 -3 -10 -24 -36 0
1 -3 -10 -24 -41 0
1 -3 -10 -25 -32 0
1 -3 -10 -25 -39 0
1 -3 -10 -32 -41 0
1 -3 -14 -20 -32 0
1 -3 -14 -20 -36 0
1 -3 -14 -22 -34 0
1 -3 -14 -32 -34 0
1 -3 -14 -32 -38 0
1 -3 -14 -34 -36 0
1 -3 -14 -36 -38 0
1 -3 -20 -21 -32 0
1 -3 -20 -21 -36 0
1 -3 -20 -21 -39 0
1 -3 -20 -30 -32 0
1 -3 -20 -30 -36 0
1 -3 -20 -30 -39 0
1 -3 -21 -22 -23 0
1 -3 -21 -22 -39 0
1 -3 -21 -22 -41 0
1 -3 -21 -23 -33 0
1 -3 -21 -25 -32 0
1 -3 -21 -25 -39 0
1 -3 -21 -32 -41 0
1 -3 -21 -33 -36 0
1 -3 -21 -33 -41 0
1 -3 -22 -23 -24 0
1 -3 -22 -24 -41 0
1 -3 -22 -34 -39 0
1 -3 -22 -34 -41 0
1 -3 -23 -24 -33 0
1 -3 -24 -25 -38 0
1 -3 -24 -33 -36 0
1 -3 -24 -33 -41 0
1 -3 -24 -36 -38 0
1 -3 -24 -38 -41 0
1 -3 -25 -32 -34 0
1 -3 -25 -32 -38 0
1 -3 -25 -34 -39 0
1 -3 -25 -38 -39 0
1 -3 -30 -32 -34 0
1 -3 -30 -32 -38 0
1 -3 -30 -34 -36 0
1 -3 -30 -34 -39 0
1 -3 -30 -36 -38 0
1 -3 -30 -38 -39 0
1 -3 -32 -34 -41 0
1 -3 -32 -38 -41 0
1 -3 -33 -34 -36 0
1 -3 -33 -34 -41 0
1 -4 -5 -8 -9 0
1 -4 -5 -8 -22 0
1 -4 -5 -8 -33 0
1 -4 -5 -8 -37 0
1 -4 -5 -9 -24 0
1 -4 -5 -9 -35 0
1 -4 -5 -9 -42 0
1 -4 -5 -22 -24 0
1 -4 -5 -22 -35 0
1 -4 -5 -22 -42 0
1 -4 -5 -24 -33 0
1 -4 -5 -24 -37 0
1 -4 -5 -33 -35 0
1 -4 -5 -33 -42 0
1 -4 -5 -35 -37 0
1 -4 -5 -37 -42 0
1 -4 -7 -9 -23 0
1 -4 -7 -9 -42 0
1 -4 -7 -16 -21 0
1 -4 -7 -16 -37 0
1 -4 -7 -21 -23 0
1 -4 -7 -21 -42 0
1 -4 -7 -23 -37 0
1 -4 -7 -34 -42 0
1 -4 -7 -37 -42 0
1 -4 -8 -9 -17 0
1 -4 -8 -9 -39 0
1 -4 -8 -17 -22 0
1 -4 -8 -17 -31 0
1 -4 -8 -22 -39 0
1 -4 -8 -31 -33 0
1 -4 -8 -31 -37 0
1 -4 -8 -31 -39 0
1 -4 -9 -17 -23 0
1 -4 -9 -17 -35 0
1 -4 -9 -17 -40 0
1 -4 -9 -23 -24 0
1 -4 -9 -24 -25 0
1 -4 -9 -24 -40 0
1 -4 -9 -25 -35 0
1 -4 -9 -25 -39 0
1 -4 -9 -25 -42 0
1 -4 -9 -39 -40 0
1 -4 -9 -40 -42 0
1 -4 -16 -17 -35 0
1 -4 -16 -17 -40 0
1 -4 -16 -21 -33 0
1 -4 -16 -33 -35 0
1 -4 -16 -33 -40 0
1 -4 -16 -35 -37 0
1 -4 -16 -37 -40 0
1 -4 -17 -22 -23 0
1 -4 -17 -22 -35 0
1 -4 -17 -22 -40 0
1 -4 -17 -23 -31 0
1 -4 -17 -31 -35 0
1 -4 -17 -31 -40 0
1 -4 -21 -22 -23 0
1 -4 -21 -22 -39 0
1 -4 -21 -22 -42 0
1 -4 -21 -23 -33 0
1 -4 -21 -25 -39 0
1 -4 -21 -25 -42 0
1 -4 -21 -33 -42 0
1 -4 -22 -23 -24 0
1 -4 -22 -24 -40 0
1 -4 -22 -34 -35 0
1 -4 -22 -34 -39 0
1 -4 -22 -34 -42 0
1 -4 -22 -39 -40 0
1 -4 -22 -40 -42 0
1 -4 -23 -24 -33 0
1 -4 -23 -24 -37 0
1 -4 -23 -31 -33 0
1 -4 -23 -31 -37 0
1 -4 -24 -25 -37 0
1 -4 -24 -33 -40 0
1 -4 -24 -37 -40 0
1 -4 -25 -34 -35 0
1 -4 -25 -34 -39 0
1 -4 -25 -34 -42 0
1 -4 -25 -35 -37 0
1 -4 -25 -37 -42 0
1 -4 -31 -33 -35 0
1 -4 -31 -33 -40 0
1 -4 -31 -35 -37 0
1 -4 -31 -37 -40 0
1 -4 -31 -39 -40 0
1 -4 -33 -34 -35 0
1 -4 -33 -34 -42 0
1 -4 -33 -40 -42 0
1 -4 -37 -40 -42 0
1 -5 -8 -9 -10 0
1 -5 -8 -9 -38 0
1 -5 -8 -10 -37 0
1 -5 -8 -10 -41 0
1 -5 -8 -14 -15 0
1 -5 -8 -14 -22 0
1 -5 -8 -14 -38 0
1 -5 -8 -15 -33 0
1 -5 -8 -15 -37 0
1 -5 -8 -19 -33 0
1 -5 -8 -19 -37 0
1 -5 -8 -19 -38 0
1 -5 -8 -22 -41 0
1 -5 -8 -33 -41 0
1 -5 -8 -38 -41 0
1 -5 -9 -10 -24 0
1 -5 -9 -10 -32 0
1 -5 -9 -24 -38 0
1 -5 -9 -32 -35 0
1 -5 -9 -32 -38 0
1 -5 -9 -32 -42 0
1 -5 -10 -24 -36 0
1 -5 -10 -24 -37 0
1 -5 -10 -24 -41 0
1 -5 -10 -32 -41 0
1 -5 -14 -15 -28 0
1 -5 -14 -15 -35 0
1 -5 -14 -15 -36 0
1 -5 -14 -22 -35 0
1 -5 -14 -22 -42 0
1 -5 -14 -28 -38 0
1 -5 -14 -28 -42 0
1 -5 -14 -32 -35 0
1 -5 -14 -32 -38 0
1 -5 -14 -32 -42 0
1 -5 -14 -36 -38 0
1 -5 -14 -36 -42 0
1 -5 -15 -28 -33 0
1 -5 -15 -28 -37 0
1 -5 -15 -33 -35 0
1 -5 -15 -33 -36 0
1 -5 -15 -35 -37 0
1 -5 -19 -28 -33 0
1 -5 -19 -28 -37 0
1 -5 -19 -28 -38 0
1 -5 -19 -32 -35 0
1 -5 -19 -32 -38 0
1 -5 -19 -33 -35 0
1 -5 -19 -35 -37 0
1 -5 -22 -24 -41 0
1 -5 -22 -35 -41 0
1 -5 -22 -41 -42 0
1 -5 -24 -28 -33 0
1 -5 -24 -28 -37 0
1 -5 -24 -28 -38 0
1 -5 -24 -33 -36 0
1 -5 -24 -33 -41 0
1 -5 -24 -36 -38 0
1 -5 -24 -38 -41 0
1 -5 -28 -33 -42 0
1 -5 -28 -37 -42 0
1 -5 -32 -35 -41 0
1 -5 -32 -38 -41 0
1 -5 -32 -41 -42 0
1 -5 -33 -35 -41 0
1 -5 -33 -36 -42 0
1 -5 -33 -41 -42 0
1 -6 -7 -9 -10 0
1 -6 -7 -9 -38 0
1 -6 -7 -9 -42 0
1 -6 -7 -10 -37 0
1 -6 -7 -13 -16 0
1 -6 -7 -13 -34 0
1 -6 -7 -13 -38 0
1 -6 -7 -16 -21 0
1 -6 -7 -16 -37 0
1 -6 -7 -18 -34 0
1 -6 -7 -18 -37 0
1 -6 -7 -18 -38 0
1 -6 -7 -21 -42 0
1 -6 -7 -34 -42 0
1 -6 -7 -37 -42 0
1 -6 -9 -10 -25 0
1 -6 -9 -10 -40 0
1 -6 -9 -25 -35 0
1 -6 -9 -25 -38 0
1 -6 -9 -25 -42 0
1 -6 -9 -40 -42 0
1 -6 -10 -25 -37 0
1 -6 -10 -36 -40 0
1 -6 -10 -37 -40 0
1 -6 -10 -40 -41 0
1 -6 -13 -16 -29 0
1 -6 -13 -16 -35 0
1 -6 -13 -16 -36 0
1 -6 -13 -29 -34 0
1 -6 -13 -29 -38 0
1 -6 -13 -34 -35 0
1 -6 -13 -34 -36 0
1 -6 -13 -36 -38 0
1 -6 -16 -21 -36 0
1 -6 -16 -21 -41 0
1 -6 -16 -29 -37 0
1 -6 -16 -29 -41 0
1 -6 -16 -35 -37 0
1 -6 -16 -35 -41 0
1 -6 -16 -36 -40 0
1 -6 -16 -37 -40 0
1 -6 -16 -40 -41 0
1 -6 -18 -29 -34 0
1 -6 -18 -29 -37 0
1 -6 -18 -29 -38 0
1 -6 -18 -34 -36 0
1 -6 -18 -36 -38 0
1 -6 -18 -36 -40 0
1 -6 -18 -37 -40 0
1 -6 -21 -25 -42 0
1 -6 -21 -36 -42 0
1 -6 -21 -41 -42 0
1 -6 -25 -29 -34 0
1 -6 -25 -29 -37 0
1 -6 -25 -29 -38 0
1 -6 -25 -34 -35 0
1 -6 -25 -34 -42 0
1 -6 -25 -35 -37 0
1 -6 -25 -37 -42 0
1 -6 -29 -34 -41 0
1 -6 -29 -38 -41 0
1 -6 -34 -35 -41 0
1 -6 -34 -36 -42 0
1 -6 -34 -41 -42 0
1 -6 -36 -40 -42 0
1 -6 -37 -40 -42 0
1 -6 -40 -41 -42 0
1 -7 -9 -10 -23 0
1 -7 -9 -23 -27 0
1 -7 -9 -23 -30 0
1 -7 -9 -27 -38 0
1 -7 -9 -27 -42 0
1 -7 -9 -30 -38 0
1 -7 -9 -30 -42 0
1 -7 -10 -20 -37 0
1 -7 -10 -23 -37 0
1 -7 -13 -16 -20 0
1 -7 -13 -16 -28 0
1 -7 -13 -20 -30 0
1 -7 -13 -23 -28 0
1 -7 -13 -23 -30 0
1 -7 -13 -28 -34 0
1 -7 -13 -28 -38 0
1 -7 -13 -30 -34 0
1 -7 -13 -30 -38 0
1 -7 -16 -20 -21 0
1 -7 -16 -20 -27 0
1 -7 -16 -20 -37 0
1 -7 -16 -21 -28 0
1 -7 -16 -27 -28 0
1 -7 -16 -28 -37 0
1 -7 -18 -20 -27 0
1 -7 -18 -20 -30 0
1 -7 -18 -20 -37 0
1 -7 -18 -23 -27 0
1 -7 -18 -23 -30 0
1 -7 -18 -23 -37 0
1 -7 -18 -27 -38 0
1 -7 -18 -30 -34 0
1 -7 -18 -30 -38 0
1 -7 -20 -21 -42 0
1 -7 -20 -27 -42 0
1 -7 -20 -30 -42 0
1 -7 -20 -37 -42 0
1 -7 -21 -23 -28 0
1 -7 -21 -28 -42 0
1 -7 -23 -27 -28 0
1 -7 -23 -28 -37 0
1 -7 -27 -28 -38 0
1 -7 -27 -28 -42 0
1 -7 -28 -34 -42 0
1 -7 -28 -37 -42 0
1 -7 -30 -34 -42 0
1 -8 -9 -10 -39 0
1 -8 -9 -17 -38 0
1 -8 -9 -38 -39 0
1 -8 -10 -26 -37 0
1 -8 -10 -26 -39 0
1 -8 -10 -26 -41 0
1 -8 -10 -31 -37 0
1 -8 -10 -31 -39 0
1 -8 -10 -31 -41 0
1 -8 -14 -15 -17 0
1 -8 -14 -15 -29 0
1 -8 -14 -17 -22 0
1 -8 -14 -17 -26 0
1 -8 -14 -17 -38 0
1 -8 -14 -22 -29 0
1 -8 -14 -26 -29 0
1 -8 -14 -29 -38 0
1 -8 -15 -17 -31 0
1 -8 -15 -29 -33 0
1 -8 -15 -29 -37 0
1 -8 -15 -29 -39 0
1 -8 -15 -31 -33 0
1 -8 -15 -31 -37 0
1 -8 -15 -31 -39 0
1 -8 -17 -19 -26 0
1 -8 -17 -19 -31 0
1 -8 -17 -19 -38 0
1 -8 -17 -22 -41 0
1 -8 -17 -26 -41 0
1 -8 -17 -31 -41 0
1 -8 -17 -38 -41 0
1 -8 -19 -26 -37 0
1 -8 -19 -26 -39 0
1 -8 -19 -31 -33 0
1 -8 -19 -31 -37 0
1 -8 -19 -31 -39 0
1 -8 -19 -38 -39 0
1 -8 -22 -29 -39 0
1 -8 -22 -29 -41 0
1 -8 -26 -29 -37 0
1 -8 -26 -29 -39 0
1 -8 -26 -29 -41 0
1 -8 -29 -33 -41 0
1 -8 -29 -38 -39 0
1 -8 -29 -38 -41 0
1 -8 -31 -33 -41 0
1 -9 -10 -23 -24 0
1 -9 -10 -24 -25 0
1 -9 -10 -24 -40 0
1 -9 -10 -25 -32 0
1 -9 -10 -25 -39 0
1 -9 -10 -32 -40 0
1 -9 -10 -39 -40 0
1 -9 -17 -23 -27 0
1 -9 -17 -27 -38 0
1 -9 -17 -27 -40 0
1 -9 -17 -32 -35 0
1 -9 -17 -32 -38 0
1 -9 -17 -32 -40 0
1 -9 -23 -24 -27 0
1 -9 -24 -25 -38 0
1 -9 -24 -27 -38 0
1 -9 -24 -27 -40 0
1 -9 -25 -32 -35 0
1 -9 -25 -32 -38 0
1 -9 -25 -32 -42 0
1 -9 -25 -38 -39 0
1 -9 -27 -38 -39 0
1 -9 -27 -39 -40 0
1 -9 -27 -40 -42 0
1 -9 -30 -32 -35 0
1 -9 -30 -32 -38 0
1 -9 -30 -32 -42 0
1 -9 -30 -38 -39 0
1 -9 -32 -40 -42 0
1 -10 -20 -26 -32 0
1 -10 -20 -26 -37 0
1 -10 -20 -26 -39 0
1 -10 -20 -32 -40 0
1 -10 -20 -36 -40 0
1 -10 -20 -37 -40 0
1 -10 -20 -39 -40 0
1 -10 -23 -24 -37 0
1 -10 -23 -26 -37 0
1 -10 -23 -31 -37 0
1 -10 -24 -25 -37 0
1 -10 -24 -36 -40 0
1 -10 -24 -37 -40 0
1 -10 -24 -40 -41 0
1 -10 -25 -26 -32 0
1 -10 -25 -26 -37 0
1 -10 -25 -26 -39 0
1 -10 -26 -32 -41 0
1 -10 -31 -36 -40 0
1 -10 -31 -37 -40 0
1 -10 -31 -39 -40 0
1 -10 -31 -40 -41 0
1 -10 -32 -40 -41 0
1 -11 -12 -13 -14 0
1 -11 -12 -13 -16 0
1 -11 -12 -13 -30 0
1 -11 -12 -14 -15 0
1 -11 -12 -14 -22 0
1 -11 -12 -14 -32 0
1 -11 -12 -15 -16 0
1 -11 -12 -15 -31 0
1 -11 -12 -16 -21 0
1 -11 -12 -16 -40 0
1 -11 -12 -21 -22 0
1 -11 -12 -21 -32 0
1 -11 -12 -22 -40 0
1 -11 -12 -30 -31 0
1 -11 -12 -30 -32 0
1 -11 -12 -31 -40 0
1 -11 -12 -32 -40 0
1 -11 -13 -14 -17 0
1 -11 -13 -14 -28 0
1 -11 -13 -14 -36 0
1 -11 -13 -16 -17 0
1 -11 -13 -16 -28 0
1 -11 -13 -16 -36 0
1 -11 -13 -17 -19 0
1 -11 -13 -17 -23 0
1 -11 -13 -19 -28 0
1 -11 -13 -19 -30 0
1 -11 -13 -23 -28 0
1 -11 -13 -23 -30 0
1 -11 -13 -30 -36 0
1 -11 -14 -15 -17 0
1 -11 -14 -15 -28 0
1 -11 -14 -15 -36 0
1 -11 -14 -17 -22 0
1 -11 -14 -17 -32 0
1 -11 -14 -22 -42 0
1 -11 -14 -28 -42 0
1 -11 -14 -32 -42 0
1 -11 -14 -36 -42 0
1 -11 -15 -16 -17 0
1 -11 -15 -16 -28 0
1 -11 -15 -16 -36 0
1 -11 -15 -17 -31 0
1 -11 -15 -28 -31 0
1 -11 -15 -31 -36 0
1 -11 -16 -17 -40 0
1 -11 -16 -21 -28 0
1 -11 -16 -21 -36 0
1 -11 -16 -28 -40 0
1 -11 -16 -36 -40 0
1 -11 -17 -19 -31 0
1 -11 -17 -19 -32 0
1 -11 -17 -22 -23 0
1 -11 -17 -22 -40 0
1 -11 -17 -23 -31 0
1 -11 -17 -31 -40 0
1 -11 -17 -32 -40 0
1 -11 -19 -28 -31 0
1 -11 -19 -30 -31 0
1 -11 -19 -30 -32 0
1 -11 -21 -22 -23 0
1 -11 -21 -22 -42 0
1 -11 -21 -23 -28 0
1 -11 -21 -28 -42 0
1 -11 -21 -32 -42 0
1 -11 -21 -36 -42 0
1 -11 -22 -23 -24 0
1 -11 -22 -24 -40 0
1 -11 -22 -40 -42 0
1 -11 -23 -24 -28 0
1 -11 -23 -28 -31 0
1 -11 -23 -30 -31 0
1 -11 -24 -28 -40 0
1 -11 -24 -36 -40 0
1 -11 -28 -31 -40 0
1 -11 -28 -40 -42 0
1 -11 -30 -31 -36 0
1 -11 -30 -32 -42 0
1 -11 -30 -36 -42 0
1 -11 -31 -36 -40 0
1 -11 -32 -40 -42 0
1 -11 -36 -40 -42 0
1 -12 -13 -14 -20 0
1 -12 -13 -14 -29 0
1 -12 -13 -14 -35 0
1 -12 -13 -16 -20 0
1 -12 -13 -16 -29 0
1 -12 -13 -16 -35 0
1 -12 -13 -20 -30 0
1 -12 -13 -29 -30 0
1 -12 -13 -30 -35 0
1 -12 -14 -15 -20 0
1 -12 -14 -15 -29 0
1 -12 -14 -15 -35 0
1 -12 -14 -20 -32 0
1 -12 -14 -22 -29 0
1 -12 -14 -22 -35 0
1 -12 -14 -29 -32 0
1 -12 -14 -32 -35 0
1 -12 -15 -16 -20 0
1 -12 -15 -16 -29 0
1 -12 -15 -16 -35 0
1 -12 -15 -18 -20 0
1 -12 -15 -18 -29 0
1 -12 -15 -18 -31 0
1 -12 -15 -20 -39 0
1 -12 -15 -29 -39 0
1 -12 -15 -31 -35 0
1 -12 -15 -31 -39 0
1 -12 -16 -20 -21 0
1 -12 -16 -20 -40 0
1 -12 -16 -21 -41 0
1 -12 -16 -29 -41 0
1 -12 -16 -35 -41 0
1 -12 -16 -40 -41 0
1 -12 -18 -20 -30 0
1 -12 -18 -20 -40 0
1 -12 -18 -29 -30 0
1 -12 -18 -30 -31 0
1 -12 -18 -31 -40 0
1 -12 -20 -21 -32 0
1 -12 -20 -21 -39 0
1 -12 -20 -30 -32 0
1 -12 -20 -30 -39 0
1 -12 -20 -32 -40 0
1 -12 -20 -39 -40 0
1 -12 -21 -22 -39 0
1 -12 -21 -22 -41 0
1 -12 -21 -25 -32 0
1 -12 -21 -25 -39 0
1 -12 -21 -32 -41 0
1 -12 -22 -29 -39 0
1 -12 -22 -29 -41 0
1 -12 -22 -35 -41 0
1 -12 -22 -39 -40 0
1 -12 -22 -40 -41 0
1 -12 -25 -29 -32 0
1 -12 -25 -29 -39 0
1 -12 -25 -32 -35 0
1 -12 -29 -30 -32 0
1 -12 -29 -30 -39 0
1 -12 -29 -32 -41 0
1 -12 -30 -31 -35 0
1 -12 -30 -31 -39 0
1 -12 -30 -32 -35 0
1 -12 -31 -35 -41 0
1 -12 -31 -39 -40 0
1 -12 -31 -40 -41 0
1 -12 -32 -35 -41 0
1 -12 -32 -40 -41 0
1 -13 -14 -17 -26 0
1 -13 -14 -17 -35 0
1 -13 -14 -17 -38 0
1 -13 -14 -20 -26 0
1 -13 -14 -20 -36 0
1 -13 -14 -26 -28 0
1 -13 -14 -26 -29 0
1 -13 -14 -28 -34 0
1 -13 -14 -28 -38 0
1 -13 -14 -29 -34 0
1 -13 -14 -29 -38 0
1 -13 -14 -34 -35 0
1 -13 -14 -34 -36 0
1 -13 -14 -36 -38 0
1 -13 -16 -17 -26 0
1 -13 -16 -17 -35 0
1 -13 -16 -20 -26 0
1 -13 -16 -20 -36 0
1 -13 -16 -26 -28 0
1 -13 -16 -26 -29 0
1 -13 -16 -28 -33 0
1 -13 -16 -29 -33 0
1 -13 -16 -33 -35 0
1 -13 -16 -33 -36 0
1 -13 -17 -19 -26 0
1 -13 -17 -19 -35 0
1 -13 -17 -19 -38 0
1 -13 -17 -23 -26 0
1 -13 -19 -26 -28 0
1 -13 -19 -26 -30 0
1 -13 -19 -28 -33 0
1 -13 -19 -28 -38 0
1 -13 -19 -30 -35 0
1 -13 -19 -30 -38 0
1 -13 -19 -33 -35 0
1 -13 -20 -26 -30 0
1 -13 -20 -30 -36 0
1 -13 -23 -26 -28 0
1 -13 -23 -26 -30 0
1 -13 -23 -28 -33 0
1 -13 -26 -29 -30 0
1 -13 -28 -33 -34 0
1 -13 -29 -30 -34 0
1 -13 -29 -30 -38 0
1 -13 -29 -33 -34 0
1 -13 -30 -34 -35 0
1 -13 -30 -34 -36 0
1 -13 -30 -36 -38 0
1 -13 -33 -34 -35 0
1 -13 -33 -34 -36 0
1 -14 -15 -17 -27 0
1 -14 -15 -17 -35 0
1 -14 -15 -20 -27 0
1 -14 -15 -20 -36 0
1 -14 -15 -27 -28 0
1 -14 -15 -27 -29 0
1 -14 -15 -28 -34 0
1 -14 -15 -29 -34 0
1 -14 -15 -34 -35 0
1 -14 -15 -34 -36 0
1 -14 -17 -22 -27 0
1 -14 -17 -22 -35 0
1 -14 -17 -26 -27 0
1 -14 -17 -26 -32 0
1 -14 -17 -27 -38 0
1 -14 -17 -32 -35 0
1 -14 -17 -32 -38 0
1 -14 -20 -26 -27 0
1 -14 -20 -26 -32 0
1 -14 -20 -27 -42 0
1 -14 -20 -32 -42 0
1 -14 -20 -36 -42 0
1 -14 -22 -27 -29 0
1 -14 -22 -27 -42 0
1 -14 -22 -29 -34 0
1 -14 -22 -34 -35 0
1 -14 -22 -34 -42 0
1 -14 -26 -27 -28 0
1 -14 -26 -27 -29 0
1 -14 -26 -29 -32 0
1 -14 -27 -28 -38 0
1 -14 -27 -28 -42 0
1 -14 -27 -29 -38 0
1 -14 -28 -34 -42 0
1 -14 -29 -32 -34 0
1 -14 -29 -32 -38 0
1 -14 -32 -34 -35 0
1 -14 -32 -34 -42 0
1 -14 -34 -36 -42 0
1 -15 -16 -17 -27 0
1 -15 -16 -17 -35 0
1 -15 -16 -20 -27 0
1 -15 -16 -20 -36 0
1 -15 -16 -20 -37 0
1 -15 -16 -27 -28 0
1 -15 -16 -27 -29 0
1 -15 -16 -28 -33 0
1 -15 -16 -28 -37 0
1 -15 -16 -29 -33 0
1 -15 -16 -29 -37 0
1 -15 -16 -33 -35 0
1 -15 -16 -33 -36 0
1 -15 -16 -35 -37 0
1 -15 -17 -27 -31 0
1 -15 -17 -31 -35 0
1 -15 -18 -20 -27 0
1 -15 -18 -20 -36 0
1 -15 -18 -20 -37 0
1 -15 -18 -27 -29 0
1 -15 -18 -27 -31 0
1 -15 -18 -29 -34 0
1 -15 -18 -29 -37 0
1 -15 -18 -31 -36 0
1 -15 -18 -31 -37 0
1 -15 -18 -34 -36 0
1 -15 -20 -27 -39 0
1 -15 -27 -28 -31 0
1 -15 -27 -29 -39 0
1 -15 -27 -31 -39 0
1 -15 -28 -31 -33 0
1 -15 -28 -31 -37 0
1 -15 -28 -33 -34 0
1 -15 -29 -33 -34 0
1 -15 -29 -34 -39 0
1 -15 -31 -33 -35 0
1 -15 -31 -33 -36 0
1 -15 -31 -35 -37 0
1 -15 -33 -34 -35 0
1 -15 -33 -34 -36 0
1 -16 -17 -26 -27 0
1 -16 -17 -26 -41 0
1 -16 -17 -27 -40 0
1 -16 -17 -35 -41 0
1 -16 -17 -40 -41 0
1 -16 -20 -21 -26 0
1 -16 -20 -21 -36 0
1 -16 -20 -26 -27 0
1 -16 -20 -26 -37 0
1 -16 -20 -27 -40 0
1 -16 -20 -36 -40 0
1 -16 -20 -37 -40 0
1 -16 -21 -26 -28 0
1 -16 -21 -26 -41 0
1 -16 -21 -28 -33 0
1 -16 -21 -33 -36 0
1 -16 -21 -33 -41 0
1 -16 -26 -27 -28 0
1 -16 -26 -27 -29 0
1 -16 -26 -28 -37 0
1 -16 -26 -29 -37 0
1 -16 -26 -29 -41 0
1 -16 -27 -28 -40 0
1 -16 -28 -33 -40 0
1 -16 -28 -37 -40 0
1 -16 -29 -33 -41 0
1 -16 -33 -35 -41 0
1 -16 -33 -36 -40 0
1 -16 -33 -40 -41 0
1 -17 -19 -26 -27 0
1 -17 -19 -26 -32 0
1 -17 -19 -27 -31 0
1 -17 -19 -27 -38 0
1 -17 -19 -31 -35 0
1 -17 -19 -32 -35 0
1 -17 -19 -32 -38 0
1 -17 -22 -23 -27 0
1 -17 -22 -27 -40 0
1 -17 -22 -35 -41 0
1 -17 -22 -40 -41 0
1 -17 -23 -26 -27 0
1 -17 -23 -27 -31 0
1 -17 -26 -32 -41 0
1 -17 -27 -31 -40 0
1 -17 -31 -35 -41 0
1 -17 -31 -40 -41 0
1 -17 -32 -35 -41 0
1 -17 -32 -38 -41 0
1 -17 -32 -40 -41 0
1 -18 -19 -26 -27 0
1 -18 -19 -26 -30 0
1 -18 -19 -26 -37 0
1 -18 -19 -27 -31 0
1 -18 -19 -27 -38 0
1 -18 -19 -30 -31 0
1 -18 -19 -30 -38 0
1 -18 -19 -31 -37 0
1 -18 -20 -26 -27 0
1 -18 -20 -26 -30 0
1 -18 -20 -26 -37 0
1 -18 -20 -27 -40 0
1 -18 -20 -30 -36 0
1 -18 -20 -36 -40 0
1 -18 -20 -37 -40 0
1 -18 -23 -24 -27 0
1 -18 -23 -24 -37 0
1 -18 -23 -26 -27 0
1 -18 -23 -26 -30 0
1 -18 -23 -26 -37 0
1 -18 -23 -27 -31 0
1 -18 -23 -30 -31 0
1 -18 -23 -31 -37 0
1 -18 -24 -27 -38 0
1 -18 -24 -27 -40 0
1 -18 -24 -36 -38 0
1 -18 -24 -36 -40 0
1 -18 -24 -37 -40 0
1 -18 -26 -27 -29 0
1 -18 -26 -29 -30 0
1 -18 -26 -29 -37 0
1 -18 -27 -29 -38 0
1 -18 -27 -31 -40 0
1 -18 -29 -30 -34 0
1 -18 -29 -30 -38 0
1 -18 -30 -31 -36 0
1 -18 -30 -34 -36 0
1 -18 -30 -36 -38 0
1 -18 -31 -36 -40 0
1 -18 -31 -37 -40 0
1 -19 -25 -26 -32 0
1 -19 -25 -26 -37 0
1 -19 -25 -26 -39 0
1 -19 -25 -32 -35 0
1 -19 -25 -32 -38 0
1 -19 -25 -35 -37 0
1 -19 -25 -38 -39 0
1 -19 -26 -27 -28 0
1 -19 -26 -27 -39 0
1 -19 -26 -28 -37 0
1 -19 -26 -30 -32 0
1 -19 -26 -30 -39 0
1 -19 -27 -28 -31 0
1 -19 -27 -28 -38 0
1 -19 -27 -31 -39 0
1 -19 -27 -38 -39 0
1 -19 -28 -31 -33 0
1 -19 -28 -31 -37 0
1 -19 -30 -31 -35 0
1 -19 -30 -31 -39 0
1 -19 -30 -32 -35 0
1 -19 -30 -32 -38 0
1 -19 -30 -38 -39 0
1 -19 -31 -33 -35 0
1 -19 -31 -35 -37 0
1 -20 -21 -26 -32 0
1 -20 -21 -26 -39 0
1 -20 -21 -32 -42 0
1 -20 -21 -36 -42 0
1 -20 -26 -27 -39 0
1 -20 -26 -30 -32 0
1 -20 -26 -30 -39 0
1 -20 -27 -39 -40 0
1 -20 -27 -40 -42 0
1 -20 -30 -32 -42 0
1 -20 -30 -36 -42 0
1 -20 -32 -40 -42 0
1 -20 -36 -40 -42 0
1 -20 -37 -40 -42 0
1 -21 -22 -41 -42 0
1 -21 -23 -26 -28 0
1 -21 -23 -28 -33 0
1 -21 -25 -26 -32 0
1 -21 -25 -26 -39 0
1 -21 -25 -32 -42 0
1 -21 -26 -32 -41 0
1 -21 -28 -33 -42 0
1 -21 -32 -41 -42 0
1 -21 -33 -36 -42 0
1 -21 -33 -41 -42 0
1 -22 -23 -24 -27 0
1 -22 -24 -27 -40 0
1 -22 -24 -40 -41 0
1 -22 -27 -29 -39 0
1 -22 -27 -39 -40 0
1 -22 -27 -40 -42 0
1 -22 -29 -34 -39 0
1 -22 -29 -34 -41 0
1 -22 -34 -35 -41 0
1 -22 -34 -41 -42 0
1 -22 -40 -41 -42 0
1 -23 -24 -27 -28 0
1 -23 -24 -28 -33 0
1 -23 -24 -28 -37 0
1 -23 -26 -27 -28 0
1 -23 -26 -28 -37 0
1 -23 -27 -28 -31 0
1 -23 -28 -31 -33 0
1 -23 -28 -31 -37 0
1 -24 -27 -28 -38 0
1 -24 -27 -28 -40 0
1 -24 -28 -33 -40 0
1 -24 -28 -37 -40 0
1 -24 -33 -36 -40 0
1 -24 -33 -40 -41 0
1 -25 -26 -29 -32 0
1 -25 -26 -29 -37 0
1 -25 -26 -29 -39 0
1 -25 -29 -32 -34 0
1 -25 -29 -32 -38 0
1 -25 -29 -34 -39 0
1 -25 -29 -38 -39 0
1 -25 -32 -34 -35 0
1 -25 -32 -34 -42 0
1 -26 -27 -29 -39 0
1 -26 -29 -30 -32 0
1 -26 -29 -30 -39 0
1 -26 -29 -32 -41 0
1 -27 -28 -31 -40 0
1 -27 -28 -40 -42 0
1 -27 -29 -38 -39 0
1 -27 -31 -39 -40 0
1 -28 -31 -33 -40 0
1 -28 -31 -37 -40 0
1 -28 -33 -34 -42 0
1 -28 -33 -40 -42 0
1 -28 -37 -40 -42 0
1 -29 -30 -32 -34 0
1 -29 -30 -32 -38 0
1 -29 -30 -34 -39 0
1 -29 -30 -38 -39 0
1 -29 -32 -34 -41 0
1 -29 -32 -38 -41 0
1 -29 -33 -34 -41 0
1 -30 -32 -34 -35 0
1 -30 -32 -34 -42 0
1 -30 -34 -36 -42 0
1 -31 -33 -35 -41 0
1 -31 -33 -36 -40 0
1 -31 -33 -40 -41 0
1 -32 -34 -35 -41 0
1 -32 -34 -41 -42 0
1 -32 -40 -41 -42 0
1 -33 -34 -35 -41 0
1 -33 -34 -36 -42 0
1 -33 -34 -41 -42 0
1 -33 -36 -40 -42 0
1 -33 -40 -41 -42 0
1 1 2 3 4 0
1 1 2 3 16 0
1 1 2 3 37 0
1 1 2 3 40 0
1 1 2 4 14 0
1 1 2 4 32 0
1 1 2 4 38 0
1 1 2 14 16 0
1 1 2 14 37 0
1 1 2 14 40 0
1 1 2 16 32 0
1 1 2 16 38 0
1 1 2 32 37 0
1 1 2 37 38 0
1 1 2 38 40 0
1 1 3 4 15 0
1 1 3 4 27 0
1 1 3 4 28 0
1 1 3 5 16 0
1 1 3 5 17 0
1 1 3 5 27 0
1 1 3 5 40 0
1 1 3 9 15 0
1 1 3 9 16 0
1 1 3 9 28 0
1 1 3 9 37 0
1 1 3 15 40 0
1 1 3 15 42 0
1 1 3 16 42 0
1 1 3 17 28 0
1 1 3 17 37 0
1 1 3 17 42 0
1 1 3 27 35 0
1 1 3 27 37 0
1 1 3 28 35 0
1 1 3 35 40 0
1 1 3 35 42 0
1 1 4 14 30 0
1 1 4 15 30 0
1 1 4 15 32 0
1 1 4 15 38 0
1 1 4 27 30 0
1 1 4 27 32 0
1 1 4 28 30 0
1 1 4 28 32 0
1 1 5 16 30 0
1 1 5 16 34 0
1 1 5 16 39 0
1 1 5 17 30 0
1 1 5 17 34 0
1 1 5 17 39 0
1 1 5 27 30 0
1 1 5 27 34 0
1 1 5 30 40 0
1 1 5 34 40 0
1 1 8 16 30 0
1 1 8 16 32 0
1 1 8 16 34 0
1 1 8 16 42 0
1 1 8 27 30 0
1 1 8 27 32 0
1 1 8 27 34 0
1 1 8 27 35 0
1 1 8 28 30 0
1 1 8 28 32 0
1 1 8 28 35 0
1 1 8 30 40 0
1 1 8 34 40 0
1 1 8 35 40 0
1 1 8 35 42 0
1 1 9 14 16 0
1 1 9 14 37 0
1 1 9 15 22 0
1 1 9 16 22 0
1 1 9 16 34 0
1 1 9 22 28 0
1 1 9 22 37 0
1 1 9 34 37 0
1 1 14 16 30 0
1 1 14 16 39 0
1 1 14 30 37 0
1 1 14 30 40 0
1 1 14 37 39 0
1 1 15 22 30 0
1 1 15 22 32 0
1 1 15 22 38 0
1 1 15 30 40 0
1 1 15 38 40 0
1 1 15 38 42 0
1 1 16 22 30 0
1 1 16 22 32 0
1 1 16 22 38 0
1 1 16 32 39 0
1 1 16 34 38 0
1 1 16 38 42 0
1 1 16 39 42 0
1 1 17 28 30 0
1 1 17 28 39 0
1 1 17 30 37 0
1 1 17 34 37 0
1 1 17 37 39 0
1 1 17 39 42 0
1 1 22 28 30 0
1 1 22 28 32 0
1 1 22 30 37 0
1 1 22 32 37 0
1 1 22 37 38 0
1 1 27 30 37 0
1 1 27 32 37 0
1 1 27 34 37 0
1 1 28 32 39 0
1 1 28 35 39 0
1 1 32 37 39 0
1 1 34 37 38 0
1 1 34 38 40 0
1 1 35 38 40 0
1 1 35 38 42 0
1 1 35 39 42 0
1 2 3 4 13 0
1 2 3 4 26 0
1 2 3 4 29 0
1 2 3 13 31 0
1 2 3 13 37 0
1 2 3 13 40 0
1 2 3 16 31 0
1 2 3 26 31 0
1 2 3 26 40 0
1 2 3 29 31 0
1 2 3 29 40 0
1 2 4 6 14 0
1 2 4 6 20 0
1 2 4 6 26 0
1 2 4 6 32 0
1 2 4 10 13 0
1 2 4 10 14 0
1 2 4 10 29 0
1 2 4 10 38 0
1 2 4 13 32 0
1 2 4 13 41 0
1 2 4 14 41 0
1 2 4 20 29 0
1 2 4 20 38 0
1 2 4 20 41 0
1 2 4 26 36 0
1 2 4 26 38 0
1 2 4 29 36 0
1 2 4 32 36 0
1 2 4 36 41 0
1 2 6 14 23 0
1 2 6 14 31 0
1 2 6 14 33 0
1 2 6 20 23 0
1 2 6 20 31 0
1 2 6 20 33 0
1 2 6 23 32 0
1 2 6 26 31 0
1 2 6 26 33 0
1 2 6 31 32 0
1 2 6 32 33 0
1 2 7 14 31 0
1 2 7 14 33 0
1 2 7 14 40 0
1 2 7 14 41 0
1 2 7 26 31 0
1 2 7 26 33 0
1 2 7 26 36 0
1 2 7 26 40 0
1 2 7 29 31 0
1 2 7 29 36 0
1 2 7 29 40 0
1 2 7 31 32 0
1 2 7 32 33 0
1 2 7 32 36 0
1 2 7 36 41 0
1 2 10 13 21 0
1 2 10 14 16 0
1 2 10 14 21 0
1 2 10 14 33 0
1 2 10 16 38 0
1 2 10 21 29 0
1 2 10 21 38 0
1 2 10 33 38 0
1 2 13 21 31 0
1 2 13 21 37 0
1 2 13 21 40 0
1 2 13 31 32 0
1 2 13 32 37 0
1 2 13 37 41 0
1 2 14 16 23 0
1 2 14 16 31 0
1 2 14 21 31 0
1 2 14 21 37 0
1 2 14 21 40 0
1 2 14 23 40 0
1 2 14 23 41 0
1 2 14 33 37 0
1 2 14 37 41 0
1 2 16 23 32 0
1 2 16 23 38 0
1 2 16 31 32 0
1 2 16 31 38 0
1 2 20 23 29 0
1 2 20 23 38 0
1 2 20 23 41 0
1 2 20 29 31 0
1 2 20 31 38 0
1 2 20 33 38 0
1 2 21 29 31 0
1 2 21 29 40 0
1 2 21 31 38 0
1 2 21 37 38 0
1 2 21 38 40 0
1 2 23 29 36 0
1 2 23 29 40 0
1 2 23 32 36 0
1 2 23 36 41 0
1 2 23 38 40 0
1 2 26 31 38 0
1 2 26 33 38 0
1 2 26 38 40 0
1 2 32 33 37 0
1 2 32 36 37 0
1 2 33 37 38 0
1 2 36 37 41 0
1 3 4 11 18 0
1 3 4 11 26 0
1 3 4 11 27 0
1 3 4 11 29 0
1 3 4 12 19 0
1 3 4 12 26 0
1 3 4 12 27 0
1 3 4 12 28 0
1 3 4 13 15 0
1 3 4 13 18 0
1 3 4 13 27 0
1 3 4 15 19 0
1 3 4 15 26 0
1 3 4 18 28 0
1 3 4 19 29 0
1 3 4 28 29 0
1 3 5 11 18 0
1 3 5 11 26 0
1 3 5 11 27 0
1 3 5 11 29 0
1 3 5 12 17 0
1 3 5 12 26 0
1 3 5 12 27 0
1 3 5 13 18 0
1 3 5 13 27 0
1 3 5 13 31 0
1 3 5 13 40 0
1 3 5 16 18 0
1 3 5 16 31 0
1 3 5 17 18 0
1 3 5 17 29 0
1 3 5 26 31 0
1 3 5 26 40 0
1 3 5 29 31 0
1 3 5 29 40 0
1 3 9 11 18 0
1 3 9 11 26 0
1 3 9 11 29 0
1 3 9 11 37 0
1 3 9 12 19 0
1 3 9 12 26 0
1 3 9 12 28 0
1 3 9 12 37 0
1 3 9 13 15 0
1 3 9 13 18 0
1 3 9 13 31 0
1 3 9 13 37 0
1 3 9 15 19 0
1 3 9 15 26 0
1 3 9 16 18 0
1 3 9 16 19 0
1 3 9 16 31 0
1 3 9 18 28 0
1 3 9 19 29 0
1 3 9 26 31 0
1 3 9 28 29 0
1 3 9 29 31 0
1 3 11 18 35 0
1 3 11 26 35 0
1 3 11 27 35 0
1 3 11 27 37 0
1 3 11 29 35 0
1 3 12 17 28 0
1 3 12 17 37 0
1 3 12 17 42 0
1 3 12 19 42 0
1 3 12 26 42 0
1 3 12 27 37 0
1 3 13 15 40 0
1 3 13 15 42 0
1 3 13 18 42 0
1 3 13 27 37 0
1 3 13 31 42 0
1 3 15 19 40 0
1 3 15 19 42 0
1 3 15 26 40 0
1 3 15 26 42 0
1 3 16 18 42 0
1 3 16 19 42 0
1 3 16 31 42 0
1 3 17 18 28 0
1 3 17 18 42 0
1 3 17 28 29 0
1 3 17 29 42 0
1 3 18 28 35 0
1 3 18 35 42 0
1 3 19 29 40 0
1 3 19 29 42 0
1 3 26 31 42 0
1 3 26 35 40 0
1 3 26 35 42 0
1 3 28 29 35 0
1 3 29 31 42 0
1 3 29 35 40 0
1 3 29 35 42 0
1 4 6 11 20 0
1 4 6 11 26 0
1 4 6 11 27 0
1 4 6 12 19 0
1 4 6 12 26 0
1 4 6 12 27 0
1 4 6 12 28 0
1 4 6 14 19 0
1 4 6 14 30 0
1 4 6 15 19 0
1 4 6 15 26 0
1 4 6 15 30 0
1 4 6 15 32 0
1 4 6 19 20 0
1 4 6 20 28 0
1 4 6 27 30 0
1 4 6 27 32 0
1 4 6 28 30 0
1 4 6 28 32 0
1 4 10 11 18 0
1 4 10 11 27 0
1 4 10 11 29 0
1 4 10 11 38 0
1 4 10 12 19 0
1 4 10 12 27 0
1 4 10 12 28 0
1 4 10 12 38 0
1 4 10 13 15 0
1 4 10 13 18 0
1 4 10 13 27 0
1 4 10 14 18 0
1 4 10 14 19 0
1 4 10 14 30 0
1 4 10 15 19 0
1 4 10 15 30 0
1 4 10 15 38 0
1 4 10 18 28 0
1 4 10 19 29 0
1 4 10 27 30 0
1 4 10 28 29 0
1 4 10 28 30 0
1 4 11 18 41 0
1 4 11 20 29 0
1 4 11 20 38 0
1 4 11 20 41 0
1 4 11 26 38 0
1 4 11 27 41 0
1 4 12 19 36 0
1 4 12 26 36 0
1 4 12 26 38 0
1 4 12 27 36 0
1 4 12 28 36 0
1 4 13 15 32 0
1 4 13 15 41 0
1 4 13 18 32 0
1 4 13 18 41 0
1 4 13 27 32 0
1 4 13 27 41 0
1 4 14 18 41 0
1 4 14 19 41 0
1 4 14 30 41 0
1 4 15 19 41 0
1 4 15 26 38 0
1 4 15 30 41 0
1 4 18 28 32 0
1 4 18 28 41 0
1 4 19 20 29 0
1 4 19 20 41 0
1 4 19 29 36 0
1 4 19 36 41 0
1 4 20 28 29 0
1 4 20 28 41 0
1 4 27 30 41 0
1 4 27 32 36 0
1 4 27 36 41 0
1 4 28 29 36 0
1 4 28 30 41 0
1 4 28 32 36 0
1 4 28 36 41 0
1 5 6 11 20 0
1 5 6 11 26 0
1 5 6 11 27 0
1 5 6 11 39 0
1 5 6 12 17 0
1 5 6 12 23 0
1 5 6 12 26 0
1 5 6 12 27 0
1 5 6 17 20 0
1 5 6 17 30 0
1 5 6 17 39 0
1 5 6 20 23 0
1 5 6 20 31 0
1 5 6 23 39 0
1 5 6 26 31 0
1 5 6 27 30 0
1 5 7 11 25 0
1 5 7 11 26 0
1 5 7 11 29 0
1 5 7 11 39 0
1 5 7 12 17 0
1 5 7 12 26 0
1 5 7 17 25 0
1 5 7 17 29 0
1 5 7 17 39 0
1 5 7 25 31 0
1 5 7 25 40 0
1 5 7 26 31 0
1 5 7 26 40 0
1 5 7 29 31 0
1 5 7 29 40 0
1 5 11 18 25 0
1 5 11 18 39 0
1 5 11 20 25 0
1 5 11 20 29 0
1 5 11 20 34 0
1 5 11 25 27 0
1 5 11 26 34 0
1 5 11 27 34 0
1 5 12 17 34 0
1 5 12 23 34 0
1 5 12 26 34 0
1 5 12 27 34 0
1 5 13 18 21 0
1 5 13 18 25 0
1 5 13 18 39 0
1 5 13 21 27 0
1 5 13 21 31 0
1 5 13 21 40 0
1 5 13 25 27 0
1 5 13 25 31 0
1 5 13 25 40 0
1 5 16 18 25 0
1 5 16 18 39 0
1 5 16 23 25 0
1 5 16 23 34 0
1 5 16 23 39 0
1 5 16 25 30 0
1 5 16 25 31 0
1 5 16 31 34 0
1 5 17 18 21 0
1 5 17 18 25 0
1 5 17 18 39 0
1 5 17 20 25 0
1 5 17 20 29 0
1 5 17 20 34 0
1 5 17 21 29 0
1 5 17 21 30 0
1 5 17 21 34 0
1 5 17 25 30 0
1 5 20 23 25 0
1 5 20 23 29 0
1 5 20 23 34 0
1 5 20 25 31 0
1 5 20 29 31 0
1 5 20 31 34 0
1 5 21 27 30 0
1 5 21 27 34 0
1 5 21 29 31 0
1 5 21 29 40 0
1 5 21 30 40 0
1 5 21 31 34 0
1 5 21 34 40 0
1 5 23 25 40 0
1 5 23 29 40 0
1 5 23 34 40 0
1 5 25 27 30 0
1 5 25 30 40 0
1 5 26 31 34 0
1 5 26 34 40 0
1 6 8 11 20 0
1 6 8 11 27 0
1 6 8 12 23 0
1 6 8 12 24 0
1 6 8 12 27 0
1 6 8 12 28 0
1 6 8 20 23 0
1 6 8 20 24 0
1 6 8 20 28 0
1 6 8 23 32 0
1 6 8 24 30 0
1 6 8 24 32 0
1 6 8 27 30 0
1 6 8 27 32 0
1 6 8 28 30 0
1 6 8 28 32 0
1 6 11 20 33 0
1 6 11 26 33 0
1 6 11 27 33 0
1 6 11 33 39 0
1 6 12 17 24 0
1 6 12 17 28 0
1 6 12 17 33 0
1 6 12 19 23 0
1 6 12 19 24 0
1 6 12 24 26 0
1 6 12 26 33 0
1 6 12 27 33 0
1 6 14 19 23 0
1 6 14 19 24 0
1 6 14 23 39 0
1 6 14 24 30 0
1 6 14 24 31 0
1 6 14 24 39 0
1 6 14 30 33 0
1 6 14 33 39 0
1 6 15 19 22 0
1 6 15 19 23 0
1 6 15 19 24 0
1 6 15 22 26 0
1 6 15 22 30 0
1 6 15 22 32 0
1 6 15 23 32 0
1 6 15 24 26 0
1 6 15 24 30 0
1 6 15 24 32 0
1 6 17 20 24 0
1 6 17 20 28 0
1 6 17 20 33 0
1 6 17 24 30 0
1 6 17 24 39 0
1 6 17 28 30 0
1 6 17 28 39 0
1 6 17 30 33 0
1 6 17 33 39 0
1 6 19 20 22 0
1 6 19 20 23 0
1 6 19 20 24 0
1 6 20 22 28 0
1 6 20 22 31 0
1 6 20 22 33 0
1 6 20 24 31 0
1 6 22 26 31 0
1 6 22 26 33 0
1 6 22 28 30 0
1 6 22 28 32 0
1 6 22 30 33 0
1 6 22 31 32 0
1 6 22 32 33 0
1 6 23 32 39 0
1 6 24 26 31 0
1 6 24 31 32 0
1 6 24 32 39 0
1 6 27 30 33 0
1 6 27 32 33 0
1 6 28 32 39 0
1 6 32 33 39 0
1 7 8 11 25 0
1 7 8 11 35 0
1 7 8 12 24 0
1 7 8 12 36 0
1 7 8 24 32 0
1 7 8 24 35 0
1 7 8 25 36 0
1 7 8 25 40 0
1 7 8 32 36 0
1 7 8 35 36 0
1 7 8 35 40 0
1 7 11 25 33 0
1 7 11 25 41 0
1 7 11 26 33 0
1 7 11 26 35 0
1 7 11 29 35 0
1 7 11 33 39 0
1 7 11 35 39 0
1 7 11 39 41 0
1 7 12 17 24 0
1 7 12 17 33 0
1 7 12 17 36 0
1 7 12 19 24 0
1 7 12 19 36 0
1 7 12 24 26 0
1 7 12 26 33 0
1 7 12 26 36 0
1 7 14 19 24 0
1 7 14 19 40 0
1 7 14 19 41 0
1 7 14 24 31 0
1 7 14 24 39 0
1 7 14 25 31 0
1 7 14 25 33 0
1 7 14 25 40 0
1 7 14 25 41 0
1 7 14 33 39 0
1 7 14 39 41 0
1 7 15 19 22 0
1 7 15 19 24 0
1 7 15 19 40 0
1 7 15 19 41 0
1 7 15 22 25 0
1 7 15 22 26 0
1 7 15 22 32 0
1 7 15 24 26 0
1 7 15 24 32 0
1 7 15 25 40 0
1 7 15 25 41 0
1 7 15 26 40 0
1 7 17 24 29 0
1 7 17 24 39 0
1 7 17 25 33 0
1 7 17 25 36 0
1 7 17 29 36 0
1 7 17 33 39 0
1 7 17 36 39 0
1 7 19 22 36 0
1 7 19 24 29 0
1 7 19 29 36 0
1 7 19 29 40 0
1 7 19 36 41 0
1 7 22 25 31 0
1 7 22 25 33 0
1 7 22 25 36 0
1 7 22 26 31 0
1 7 22 26 33 0
1 7 22 26 36 0
1 7 22 31 32 0
1 7 22 32 33 0
1 7 22 32 36 0
1 7 24 26 31 0
1 7 24 26 35 0
1 7 24 29 31 0
1 7 24 29 35 0
1 7 24 31 32 0
1 7 24 32 39 0
1 7 24 35 39 0
1 7 25 36 41 0
1 7 26 35 36 0
1 7 26 35 40 0
1 7 29 35 36 0
1 7 29 35 40 0
1 7 32 33 39 0
1 7 32 36 39 0
1 7 35 36 39 0
1 7 36 39 41 0
1 8 11 18 25 0
1 8 11 18 35 0
1 8 11 20 25 0
1 8 11 20 34 0
1 8 11 20 35 0
1 8 11 25 27 0
1 8 11 27 34 0
1 8 11 27 35 0
1 8 12 23 34 0
1 8 12 23 36 0
1 8 12 23 42 0
1 8 12 24 34 0
1 8 12 24 42 0
1 8 12 27 34 0
1 8 12 27 36 0
1 8 12 28 36 0
1 8 13 18 21 0
1 8 13 18 25 0
1 8 13 18 32 0
1 8 13 18 42 0
1 8 13 21 24 0
1 8 13 21 27 0
1 8 13 21 40 0
1 8 13 24 32 0
1 8 13 24 42 0
1 8 13 25 27 0
1 8 13 25 40 0
1 8 13 27 32 0
1 8 16 18 25 0
1 8 16 18 32 0
1 8 16 18 42 0
1 8 16 23 25 0
1 8 16 23 32 0
1 8 16 23 34 0
1 8 16 23 42 0
1 8 16 24 30 0
1 8 16 24 32 0
1 8 16 24 34 0
1 8 16 24 42 0
1 8 16 25 30 0
1 8 18 21 35 0
1 8 18 25 28 0
1 8 18 28 32 0
1 8 18 28 35 0
1 8 18 35 42 0
1 8 20 23 25 0
1 8 20 23 34 0
1 8 20 23 35 0
1 8 20 24 34 0
1 8 20 24 35 0
1 8 20 25 28 0
1 8 20 28 35 0
1 8 21 24 30 0
1 8 21 24 34 0
1 8 21 24 35 0
1 8 21 27 30 0
1 8 21 27 34 0
1 8 21 27 35 0
1 8 21 30 40 0
1 8 21 34 40 0
1 8 21 35 40 0
1 8 23 25 36 0
1 8 23 25 40 0
1 8 23 32 36 0
1 8 23 34 40 0
1 8 23 35 36 0
1 8 23 35 40 0
1 8 23 35 42 0
1 8 24 35 42 0
1 8 25 27 30 0
1 8 25 27 36 0
1 8 25 28 30 0
1 8 25 28 36 0
1 8 25 30 40 0
1 8 27 32 36 0
1 8 27 35 36 0
1 8 28 32 36 0
1 8 28 35 36 0
1 9 11 18 33 0
1 9 11 18 41 0
1 9 11 20 29 0
1 9 11 20 33 0
1 9 11 20 34 0
1 9 11 20 41 0
1 9 11 26 33 0
1 9 11 26 34 0
1 9 11 33 37 0
1 9 11 34 37 0
1 9 11 37 41 0
1 9 12 19 34 0
1 9 12 19 36 0
1 9 12 26 33 0
1 9 12 26 34 0
1 9 12 26 36 0
1 9 12 28 36 0
1 9 12 33 37 0
1 9 12 34 37 0
1 9 12 36 37 0
1 9 13 15 21 0
1 9 13 15 22 0
1 9 13 15 41 0
1 9 13 18 21 0
1 9 13 18 22 0
1 9 13 18 41 0
1 9 13 21 31 0
1 9 13 21 37 0
1 9 13 22 31 0
1 9 13 22 37 0
1 9 13 37 41 0
1 9 14 16 18 0
1 9 14 16 19 0
1 9 14 16 31 0
1 9 14 18 21 0
1 9 14 18 33 0
1 9 14 18 41 0
1 9 14 19 21 0
1 9 14 19 41 0
1 9 14 21 31 0
1 9 14 21 37 0
1 9 14 33 37 0
1 9 14 37 41 0
1 9 15 19 21 0
1 9 15 19 22 0
1 9 15 19 41 0
1 9 15 22 26 0
1 9 16 18 22 0
1 9 16 19 22 0
1 9 16 19 34 0
1 9 16 22 31 0
1 9 16 31 34 0
1 9 18 22 28 0
1 9 18 22 33 0
1 9 18 28 41 0
1 9 19 20 22 0
1 9 19 20 29 0
1 9 19 20 34 0
1 9 19 20 41 0
1 9 19 21 29 0
1 9 19 21 34 0
1 9 19 22 36 0
1 9 19 29 36 0
1 9 19 36 41 0
1 9 20 22 28 0
1 9 20 22 31 0
1 9 20 22 33 0
1 9 20 28 29 0
1 9 20 28 41 0
1 9 20 29 31 0
1 9 20 31 34 0
1 9 21 29 31 0
1 9 21 31 34 0
1 9 21 34 37 0
1 9 22 26 31 0
1 9 22 26 33 0
1 9 22 26 36 0
1 9 22 28 36 0
1 9 22 33 37 0
1 9 22 36 37 0
1 9 26 31 34 0
1 9 28 29 36 0
1 9 28 36 41 0
1 9 36 37 41 0
1 10 11 18 33 0
1 10 11 18 35 0
1 10 11 27 33 0
1 10 11 27 34 0
1 10 11 27 35 0
1 10 11 29 35 0
1 10 11 33 38 0
1 10 11 34 38 0
1 10 11 35 38 0
1 10 12 17 28 0
1 10 12 17 33 0
1 10 12 17 34 0
1 10 12 17 42 0
1 10 12 19 34 0
1 10 12 19 42 0
1 10 12 27 33 0
1 10 12 27 34 0
1 10 12 33 38 0
1 10 12 34 38 0
1 10 12 38 42 0
1 10 13 15 21 0
1 10 13 15 22 0
1 10 13 15 42 0
1 10 13 18 21 0
1 10 13 18 22 0
1 10 13 18 42 0
1 10 13 21 27 0
1 10 14 16 18 0
1 10 14 16 19 0
1 10 14 16 30 0
1 10 14 18 21 0
1 10 14 18 33 0
1 10 14 19 21 0
1 10 14 21 30 0
1 10 14 30 33 0
1 10 15 19 21 0
1 10 15 19 22 0
1 10 15 19 42 0
1 10 15 21 30 0
1 10 15 21 38 0
1 10 15 22 30 0
1 10 15 22 38 0
1 10 15 38 42 0
1 10 16 18 22 0
1 10 16 18 42 0
1 10 16 19 22 0
1 10 16 19 34 0
1 10 16 19 42 0
1 10 16 22 30 0
1 10 16 22 38 0
1 10 16 34 38 0
1 10 16 38 42 0
1 10 17 18 21 0
1 10 17 18 28 0
1 10 17 18 33 0
1 10 17 18 42 0
1 10 17 21 29 0
1 10 17 21 30 0
1 10 17 21 34 0
1 10 17 28 29 0
1 10 17 28 30 0
1 10 17 29 42 0
1 10 17 30 33 0
1 10 18 21 35 0
1 10 18 22 28 0
1 10 18 22 33 0
1 10 18 28 35 0
1 10 18 35 42 0
1 10 19 21 29 0
1 10 19 21 34 0
1 10 19 29 42 0
1 10 21 27 30 0
1 10 21 27 34 0
1 10 21 27 35 0
1 10 21 29 35 0
1 10 21 34 38 0
1 10 21 35 38 0
1 10 22 28 30 0
1 10 22 30 33 0
1 10 22 33 38 0
1 10 27 30 33 0
1 10 28 29 35 0
1 10 29 35 42 0
1 10 35 38 42 0
1 11 18 25 33 0
1 11 18 25 41 0
1 11 18 33 39 0
1 11 18 35 39 0
1 11 18 39 41 0
1 11 20 25 33 0
1 11 20 25 41 0
1 11 20 29 35 0
1 11 20 33 38 0
1 11 20 34 38 0
1 11 20 35 38 0
1 11 25 27 33 0
1 11 25 27 41 0
1 11 26 33 38 0
1 11 26 34 38 0
1 11 26 35 38 0
1 11 27 33 37 0
1 11 27 34 37 0
1 11 27 37 41 0
1 11 33 37 38 0
1 11 33 37 39 0
1 11 34 37 38 0
1 11 37 39 41 0
1 12 17 24 34 0
1 12 17 24 42 0
1 12 17 28 36 0
1 12 17 33 37 0
1 12 17 34 37 0
1 12 17 36 37 0
1 12 19 23 34 0
1 12 19 23 36 0
1 12 19 23 42 0
1 12 19 24 34 0
1 12 19 24 42 0
1 12 23 34 38 0
1 12 23 38 42 0
1 12 24 26 34 0
1 12 24 26 42 0
1 12 26 33 38 0
1 12 26 34 38 0
1 12 26 38 42 0
1 12 27 33 37 0
1 12 27 34 37 0
1 12 27 36 37 0
1 12 33 37 38 0
1 12 34 37 38 0
1 13 15 21 24 0
1 13 15 21 40 0
1 13 15 22 25 0
1 13 15 22 32 0
1 13 15 24 32 0
1 13 15 24 42 0
1 13 15 25 40 0
1 13 15 25 41 0
1 13 18 22 25 0
1 13 18 22 32 0
1 13 18 25 41 0
1 13 18 32 39 0
1 13 18 39 41 0
1 13 18 39 42 0
1 13 21 24 31 0
1 13 21 27 37 0
1 13 22 25 31 0
1 13 22 31 32 0
1 13 22 32 37 0
1 13 24 31 32 0
1 13 24 31 42 0
1 13 24 32 39 0
1 13 24 39 42 0
1 13 25 27 41 0
1 13 27 32 37 0
1 13 27 37 41 0
1 13 32 37 39 0
1 13 37 39 41 0
1 14 16 18 25 0
1 14 16 18 39 0
1 14 16 19 23 0
1 14 16 19 24 0
1 14 16 23 25 0
1 14 16 23 39 0
1 14 16 24 30 0
1 14 16 24 31 0
1 14 16 24 39 0
1 14 16 25 30 0
1 14 16 25 31 0
1 14 18 25 33 0
1 14 18 25 41 0
1 14 18 33 39 0
1 14 18 39 41 0
1 14 19 21 24 0
1 14 19 21 40 0
1 14 19 23 40 0
1 14 19 23 41 0
1 14 21 24 30 0
1 14 21 24 31 0
1 14 21 30 37 0
1 14 21 30 40 0
1 14 23 25 40 0
1 14 23 25 41 0
1 14 23 39 41 0
1 14 25 30 33 0
1 14 25 30 40 0
1 14 25 30 41 0
1 14 30 33 37 0
1 14 30 37 41 0
1 14 33 37 39 0
1 14 37 39 41 0
1 15 19 21 24 0
1 15 19 21 40 0
1 15 19 23 40 0
1 15 19 23 41 0
1 15 19 23 42 0
1 15 19 24 42 0
1 15 21 24 30 0
1 15 21 30 40 0
1 15 21 38 40 0
1 15 22 25 30 0
1 15 22 26 38 0
1 15 23 25 40 0
1 15 23 25 41 0
1 15 23 38 40 0
1 15 23 38 42 0
1 15 24 26 42 0
1 15 25 30 40 0
1 15 25 30 41 0
1 15 26 38 40 0
1 15 26 38 42 0
1 16 18 22 25 0
1 16 18 22 32 0
1 16 18 32 39 0
1 16 18 39 42 0
1 16 19 23 34 0
1 16 19 23 42 0
1 16 19 24 34 0
1 16 19 24 42 0
1 16 22 25 30 0
1 16 22 25 31 0
1 16 22 31 32 0
1 16 22 31 38 0
1 16 23 32 39 0
1 16 23 34 38 0
1 16 23 38 42 0
1 16 23 39 42 0
1 16 24 31 32 0
1 16 24 31 34 0
1 16 24 31 42 0
1 16 24 32 39 0
1 16 24 39 42 0
1 16 31 34 38 0
1 16 31 38 42 0
1 17 18 25 28 0
1 17 18 25 33 0
1 17 18 28 39 0
1 17 18 33 39 0
1 17 18 39 42 0
1 17 20 24 29 0
1 17 20 24 34 0
1 17 20 25 28 0
1 17 20 25 33 0
1 17 20 28 29 0
1 17 21 24 29 0
1 17 21 24 30 0
1 17 21 24 34 0
1 17 21 30 37 0
1 17 21 34 37 0
1 17 24 29 42 0
1 17 24 39 42 0
1 17 25 28 30 0
1 17 25 28 36 0
1 17 25 30 33 0
1 17 28 29 36 0
1 17 28 36 39 0
1 17 30 33 37 0
1 17 33 37 39 0
1 17 36 37 39 0
1 18 22 25 28 0
1 18 22 25 33 0
1 18 22 28 32 0
1 18 22 32 33 0
1 18 25 28 41 0
1 18 28 32 39 0
1 18 28 35 39 0
1 18 28 39 41 0
1 18 32 33 39 0
1 18 35 39 42 0
1 19 20 23 29 0
1 19 20 23 34 0
1 19 20 23 41 0
1 19 20 24 29 0
1 19 20 24 34 0
1 19 21 24 29 0
1 19 21 24 34 0
1 19 21 29 40 0
1 19 21 34 40 0
1 19 23 29 36 0
1 19 23 29 40 0
1 19 23 29 42 0
1 19 23 34 40 0
1 19 23 36 41 0
1 19 24 29 42 0
1 20 22 25 28 0
1 20 22 25 31 0
1 20 22 25 33 0
1 20 22 31 38 0
1 20 22 33 38 0
1 20 23 25 41 0
1 20 23 29 35 0
1 20 23 34 38 0
1 20 23 35 38 0
1 20 24 29 31 0
1 20 24 29 35 0
1 20 24 31 34 0
1 20 25 28 41 0
1 20 28 29 35 0
1 20 31 34 38 0
1 21 24 29 31 0
1 21 24 29 35 0
1 21 24 31 34 0
1 21 27 30 37 0
1 21 27 34 37 0
1 21 29 35 40 0
1 21 31 34 38 0
1 21 34 37 38 0
1 21 34 38 40 0
1 21 35 38 40 0
1 22 25 28 30 0
1 22 25 28 36 0
1 22 25 30 33 0
1 22 26 31 38 0
1 22 26 33 38 0
1 22 28 32 36 0
1 22 30 33 37 0
1 22 32 33 37 0
1 22 32 36 37 0
1 22 33 37 38 0
1 23 25 36 41 0
1 23 29 35 36 0
1 23 29 35 40 0
1 23 29 35 42 0
1 23 32 36 39 0
1 23 34 38 40 0
1 23 35 36 39 0
1 23 35 38 40 0
1 23 35 38 42 0
1 23 35 39 42 0
1 23 36 39 41 0
1 24 26 31 34 0
1 24 26 31 42 0
1 24 26 35 42 0
1 24 29 31 42 0
1 24 29 35 42 0
1 24 35 39 42 0
1 25 27 30 33 0
1 25 27 30 41 0
1 25 27 36 41 0
1 25 28 30 41 0
1 25 28 36 41 0
1 26 31 34 38 0
1 26 31 38 42 0
1 26 34 38 40 0
1 26 35 38 40 0
1 26 35 38 42 0
1 27 30 33 37 0
1 27 30 37 41 0
1 27 32 33 37 0
1 27 32 36 37 0
1 27 36 37 41 0
1 28 29 35 36 0
1 28 32 36 39 0
1 28 35 36 39 0
1 28 36 39 41 0
1 32 33 37 39 0
1 32 36 37 39 0
1 36 37 39 41 0
